1 3 100 24918.46
1 3 200 25406.56
1 3 300 25006.35
2 3 100 30385.66
2 3 200 30925.83
2 3 300 30554.73
3 3 100 29234.43
3 3 200 31099.58
3 3 300 30284.02
4 3 100 30370.80
4 3 200 30567.95
4 3 300 29928.11
5 3 100 28611.42
5 3 200 28940.13
5 3 300 28705.60
